ALGO    = Normal
EDIFF   = 0.0001
ENCUT   = 520.0
ICHARG  = 11
ISMEAR  = -5
ISPIN   = 2
ISYM    = 2
LASPH   = True
LCHARG  = False
LMAXMIX = 4
LOCPROJ = "1 : s : Ps 2 1; 1 : d : Ps ; 1 : p : Ob " ! custom 
LORBIT  = 11
LREAL   = Auto
LWAVE   = False
NEDOS   = 2001
NELM    = 100
NSW     = 0
PREC    = Accurate
SIGMA   = 0.05
